NAME          ClpDefau
ROWS
 N  OBJROW
 L  R_220_0
 L  R_220_1
 L  R_220_2
 L  R_220_3
 L  R_220_4
 L  R_220_5
 L  R_220_6
 L  R_220_7
COLUMNS
    x_0       OBJROW     -1.           R_220_1   8.          
    x_0       R_220_2   1.             R_220_4   6.          
    x_0       R_220_6   9.             R_220_7   3.          
    x_1       OBJROW     -2.           R_220_0   1.          
    x_1       R_220_1   3.             R_220_2   9.          
    x_1       R_220_3   9.             R_220_4   3.          
    x_1       R_220_6   7.             R_220_7   6.          
    x_2       OBJROW     -2.           R_220_0   6.          
    x_2       R_220_1   8.             R_220_2   7.          
    x_2       R_220_3   8.             R_220_4   4.          
    x_2       R_220_5   8.             R_220_6   6.          
    x_2       R_220_7   8.          
    x_3       OBJROW     -6.           R_220_1   10.         
    x_3       R_220_2   9.             R_220_3   8.          
    x_3       R_220_4   6.          
    x_4       OBJROW     -3.           R_220_0   8.          
    x_4       R_220_1   9.             R_220_2   9.          
    x_4       R_220_3   10.            R_220_4   4.          
    x_4       R_220_5   6.             R_220_7   2.          
    x_5       OBJROW     -5.           R_220_0   6.          
    x_5       R_220_1   4.             R_220_3   10.         
    x_5       R_220_4   5.             R_220_5   2.          
    x_5       R_220_6   3.          
    x_6       OBJROW     -5.           R_220_0   4.          
    x_6       R_220_2   1.             R_220_3   6.          
    x_6       R_220_4   1.             R_220_5   2.          
    x_6       R_220_6   1.             R_220_7   3.          
    x_7       OBJROW     -10.          R_220_1   3.          
    x_7       R_220_2   1.             R_220_3   1.          
    x_7       R_220_4   4.             R_220_5   1.          
    x_7       R_220_6   10.            R_220_7   2.          
    x_8       OBJROW     -4.           R_220_0   8.          
    x_8       R_220_1   8.             R_220_2   10.         
    x_8       R_220_3   5.             R_220_4   10.         
    x_8       R_220_5   8.             R_220_7   6.          
    x_9       OBJROW     -10.          R_220_1   3.          
    x_9       R_220_2   7.             R_220_3   6.          
    x_9       R_220_4   6.             R_220_5   10.         
    x_9       R_220_7   9.          
    x_10      OBJROW     -1.           R_220_1   5.          
    x_10      R_220_2   3.             R_220_3   8.          
    x_10      R_220_4   9.             R_220_6   1.          
    x_11      OBJROW     -10.          R_220_0   8.          
    x_11      R_220_1   2.             R_220_2   10.         
    x_11      R_220_3   10.            R_220_4   5.          
    x_11      R_220_5   5.             R_220_6   1.          
    x_11      R_220_7   7.          
    x_12      OBJROW     -3.           R_220_0   2.          
    x_12      R_220_1   2.             R_220_2   2.          
    x_12      R_220_3   4.             R_220_4   1.          
    x_12      R_220_5   8.             R_220_6   9.          
    x_12      R_220_7   4.          
    x_13      OBJROW     -7.           R_220_0   4.          
    x_13      R_220_1   7.             R_220_2   1.          
    x_13      R_220_3   1.             R_220_6   2.          
    x_13      R_220_7   8.          
    x_14      OBJROW     -7.           R_220_0   9.          
    x_14      R_220_2   6.             R_220_3   6.          
    x_14      R_220_4   7.             R_220_5   5.          
    x_14      R_220_6   1.          
    x_15      OBJROW     -9.           R_220_0   8.          
    x_15      R_220_1   10.            R_220_2   1.          
    x_15      R_220_3   6.             R_220_4   2.          
    x_15      R_220_5   8.             R_220_6   10.         
    x_15      R_220_7   8.          
RHS
    RHS       R_220_0   68.            R_220_1   75.         
    RHS       R_220_2   76.            R_220_3   67.         
    RHS       R_220_4   72.            R_220_5   67.         
    RHS       R_220_6   67.            R_220_7   66.         
BOUNDS
 UI BOUND     x_0       10.         
 UI BOUND     x_1       10.         
 UI BOUND     x_2       10.         
 UI BOUND     x_3       10.         
 UI BOUND     x_4       10.         
 UI BOUND     x_5       10.         
 UI BOUND     x_6       10.         
 UI BOUND     x_7       10.         
 UI BOUND     x_8       10.         
 UI BOUND     x_9       10.         
 UI BOUND     x_10      10.         
 UI BOUND     x_11      10.         
 UI BOUND     x_12      10.         
 UI BOUND     x_13      10.         
 UI BOUND     x_14      10.         
 UI BOUND     x_15      10.         
ENDATA
